1000
1000
800
799
798
797
797
796
796
796
796
795
795
795
794
792
792
791
791
791
788
787
786
786
785
785
784
784
782
782
781
780
779
778
777
776
775
774
774
774
773
773
772
772
771
771
771
770
770
769
769
769
768
768
767
766
765
765
764
762
762
761
761
760
759
758
758
757
757
757
756
755
754
753
753
752
751
750
750
749
749
749
748
748
746
746
746
745
745
743
743
742
741
741
741
740
740
740
739
737
737
737
735
735
734
733
733
733
733
732
732
731
731
730
729
729
728
727
726
726
725
725
725
724
723
723
723
722
722
722
720
719
718
718
717
717
717
716
715
715
714
713
712
711
710
709
708
707
706
706
706
705
705
704
704
703
703
703
702
700
700
699
699
699
698
698
698
697
696
696
694
693
693
693
693
693
692
691
691
691
690
690
689
688
688
688
687
687
685
685
685
684
683
682
679
679
679
678
677
677
676
676
676
675
675
675
675
674
674
672
672
672
671
671
670
670
668
668
667
666
666
665
663
663
662
661
661
660
658
657
656
656
655
655
655
653
653
652
652
652
652
652
652
652
650
650
649
649
649
648
648
647
647
646
646
644
641
640
639
639
639
639
637
636
636
636
635
635
635
635
634
633
633
633
631
631
631
629
629
629
628
627
627
626
625
625
624
623
622
621
620
619
619
619
619
619
618
618
617
617
617
617
615
615
615
615
615
612
609
609
609
608
607
607
606
604
603
601
600
599
599
598
598
598
598
597
597
597
595
593
593
592
592
592
592
591
590
590
589
588
588
586
586
586
586
585
585
584
584
583
582
581
581
581
581
580
579
579
578
578
578
577
576
576
576
574
574
573
573
572
572
568
568
567
565
565
565
564
564
563
561
560
559
559
558
558
557
557
557
556
556
556
555
555
554
554
553
553
553
552
552
550
549
548
548
547
545
544
543
543
543
543
542
541
541
540
540
540
540
540
540
540
538
537
537
537
536
535
535
534
534
533
533
529
529
529
528
526
526
525
525
525
525
525
524
524
523
523
523
522
521
521
520
520
520
520
519
518
518
517
516
515
515
514
513
513
513
512
512
510
510
509
508
508
508
508
507
507
506
506
505
505
504
504
504
503
503
503
501
501
501
500
500
500
498
496
495
495
495
493
492
492
491
490
489
489
489
488
488
488
487
487
487
486
486
486
485
483
483
482
481
481
481
480
480
480
480
479
479
478
477
477
477
477
476
475
474
474
474
474
473
472
471
470
470
470
469
468
466
465
463
462
462
461
461
460
460
458
458
458
457
457
457
456
456
455
454
454
453
453
453
452
451
451
450
450
449
448
447
447
446
445
445
444
443
443
441
440
440
440
439
439
438
438
437
437
434
434
432
432
431
430
430
429
429
427
426
426
425
423
423
423
422
421
420
420
420
419
418
417
417
415
415
415
414
414
413
413
412
412
412
411
411
410
410
410
409
408
408
408
406
406
405
405
405
404
404
404
403
402
402
402
401
401
399
399
397
396
396
395
394
394
393
393
392
391
390
390
389
389
389
389
388
387
387
387
385
384
384
383
382
382
382
382
381
381
381
381
381
381
381
380
380
380
380
379
378
378
378
376
376
376
374
373
372
372
371
371
370
370
368
367
367
366
365
365
365
364
364
363
363
363
363
362
362
362
361
361
361
361
360
360
359
358
358
358
358
357
357
357
355
355
355
355
355
353
352
351
350
350
350
349
349
349
347
347
347
346
346
346
345
345
345
344
344
342
342
342
342
341
340
339
339
338
337
337
337
336
336
336
335
335
335
335
335
333
332
332
331
330
330
330
329
329
328
328
326
326
325
325
324
324
323
321
321
319
319
318
317
317
316
316
315
314
314
314
313
312
312
311
311
311
310
308
308
306
305
305
305
304
304
304
303
303
302
301
301
299
299
297
297
296
296
295
294
293
293
293
292
291
290
290
288
288
288
288
288
287
287
287
286
285
284
284
284
282
281
281
280
280
280
280
279
278
278
277
275
274
274
273
273
273
272
272
272
271
271
271
270
268
268
267
267
267
266
266
266
264
264
264
262
262
261
260
259
258
258
256
254
253
253
253
253
253
253
252
252
251
250
250
249
249
249
249
248
248
248
247
246
246
246
245
245
245
244
243
242
241
239
239
239
238
237
237
235
235
235
235
234
234
234
230
229
229
229
228
228
227
226
226
226
224
222
221
221
221
221
220
219
219
217
217
216
216
216
214
214
213
213
212
212
212
212
211
211
211
211
211
210
210
209
209
208
208
206
206
205
205
204
203
202
202
